NAME: random-99-13340
TYPE: TSP
COMMENT: size=99 seed=13340
DIMENSION: 200
EDGE_WEIGHT_TYPE: EUC_2D
NODE_COORD_SECTION
+0 380 822
-0 380 822
+1 971 240
-1 291 288
+2 353 264
-2 195 37
+3 285 13
-3 269 318
+4 589 866
-4 842 603
+5 877 293
-5 228 816
+6 711 457
-6 438 739
+7 237 509
-7 459 791
+8 933 229
-8 507 654
+9 827 430
-9 520 309
+10 915 251
-10 540 537
+11 823 357
-11 898 693
+12 821 193
-12 765 336
+13 83 411
-13 696 613
+14 130 462
-14 384 891
+15 484 130
-15 771 175
+16 173 937
-16 330 850
+17 499 219
-17 7 312
+18 588 490
-18 398 595
+19 276 44
-19 274 182
+20 279 176
-20 343 939
+21 226 794
-21 513 988
+22 536 429
-22 750 178
+23 446 871
-23 85 45
+24 881 5
-24 896 933
+25 291 406
-25 483 954
+26 230 345
-26 692 300
+27 497 457
-27 692 186
+28 794 846
-28 155 216
+29 523 474
-29 622 947
+30 589 419
-30 80 398
+31 674 324
-31 803 800
+32 829 35
-32 976 494
+33 645 97
-33 318 856
+34 398 784
-34 189 827
+35 416 525
-35 474 908
+36 741 156
-36 123 715
+37 39 188
-37 550 133
+38 693 852
-38 434 902
+39 830 911
-39 776 176
+40 838 355
-40 549 783
+41 354 844
-41 17 542
+42 7 529
-42 590 302
+43 257 459
-43 251 769
+44 375 166
-44 611 749
+45 586 429
-45 703 344
+46 256 363
-46 585 25
+47 428 299
-47 918 517
+48 77 918
-48 446 158
+49 203 60
-49 440 33
+50 383 851
-50 424 683
+51 595 327
-51 597 506
+52 247 599
-52 649 609
+53 610 502
-53 115 478
+54 113 205
-54 322 162
+55 7 179
-55 840 597
+56 281 526
-56 978 134
+57 726 471
-57 630 216
+58 328 728
-58 171 154
+59 255 97
-59 103 805
+60 127 45
-60 8 320
+61 883 493
-61 624 17
+62 390 906
-62 431 803
+63 268 786
-63 61 576
+64 732 74
-64 54 181
+65 781 562
-65 193 970
+66 283 314
-66 116 744
+67 173 958
-67 233 420
+68 600 663
-68 9 497
+69 459 328
-69 155 339
+70 51 30
-70 334 928
+71 375 595
-71 780 883
+72 521 387
-72 710 572
+73 207 10
-73 928 695
+74 698 331
-74 952 346
+75 331 692
-75 843 937
+76 456 900
-76 684 856
+77 695 118
-77 416 574
+78 697 419
-78 661 521
+79 904 808
-79 842 435
+80 804 664
-80 94 835
+81 965 730
-81 405 265
+82 123 611
-82 816 934
+83 606 593
-83 564 69
+84 285 932
-84 96 591
+85 433 613
-85 515 447
+86 475 779
-86 185 813
+87 917 506
-87 414 926
+88 700 287
-88 487 238
+89 847 758
-89 638 922
+90 306 927
-90 701 301
+91 65 912
-91 248 280
+92 23 94
-92 894 907
+93 20 682
-93 552 850
+94 66 72
-94 617 411
+95 951 860
-95 964 568
+96 899 308
-96 236 318
+97 775 450
-97 305 600
+98 833 492
-98 753 908
+99 723 581
-99 127 447
PRECEDENCE_SECTION
+0 -0
+1 -1
+2 -2
+3 -3
+4 -4
+5 -5
+6 -6
+7 -7
+8 -8
+9 -9
+10 -10
+11 -11
+12 -12
+13 -13
+14 -14
+15 -15
+16 -16
+17 -17
+18 -18
+19 -19
+20 -20
+21 -21
+22 -22
+23 -23
+24 -24
+25 -25
+26 -26
+27 -27
+28 -28
+29 -29
+30 -30
+31 -31
+32 -32
+33 -33
+34 -34
+35 -35
+36 -36
+37 -37
+38 -38
+39 -39
+40 -40
+41 -41
+42 -42
+43 -43
+44 -44
+45 -45
+46 -46
+47 -47
+48 -48
+49 -49
+50 -50
+51 -51
+52 -52
+53 -53
+54 -54
+55 -55
+56 -56
+57 -57
+58 -58
+59 -59
+60 -60
+61 -61
+62 -62
+63 -63
+64 -64
+65 -65
+66 -66
+67 -67
+68 -68
+69 -69
+70 -70
+71 -71
+72 -72
+73 -73
+74 -74
+75 -75
+76 -76
+77 -77
+78 -78
+79 -79
+80 -80
+81 -81
+82 -82
+83 -83
+84 -84
+85 -85
+86 -86
+87 -87
+88 -88
+89 -89
+90 -90
+91 -91
+92 -92
+93 -93
+94 -94
+95 -95
+96 -96
+97 -97
+98 -98
+99 -99
EOF
